(set-info :smt-lib-version 2.6)
(set-logic QF_S)
(set-info :source |
Generated by: Murphy Berzish, Mitja Kulczynski, Federico Mora, Florin Manea, Joel Day, Dirk Nowotka, Vijay Ganesh, Zhengyang Lu
Generated on: 2020-10-01
Description: Translated from a collection of real-world regex queries, AutomataArk, collected by Loris D’Antoni and Fang Wang: https://github.com/lorisdanto/automatark
Application: Evaluate solvers on real-world regex queries
Target solver: Z3str3RE, CVC4, OSTRICH, Z3seq, Z3str3, Z3-Trau
Publications: Berzish, M., Kulczynski, M., Mora, F., Manea, F., Day, J. D., Nowotka, D., & Ganesh, V. (2021, July). An SMT solver for regular expressions and linear arithmetic over string length. In CAV 2021.
|)
(set-info :license "https://creativecommons.org/licenses/by/4.0/")
(set-info :category "industrial")
(set-info :status unsat)

(declare-const X String)
(assert (not (str.in_re X (re.union (re.++ (str.to_re "958") (re.+ (re.range "0" "9")) (re.+ (re.range "0" "9")) (re.+ (re.range "0" "9")) (re.+ (re.range "0" "9")) (re.+ (re.range "0" "9")) (re.+ (re.range "0" "9"))) (re.++ (str.to_re "\u{a}958-") (re.+ (re.range "0" "9")) (re.+ (re.range "0" "9")) (re.+ (re.range "0" "9")) (re.+ (re.range "0" "9")) (re.+ (re.range "0" "9")) (re.+ (re.range "0" "9")))))))
(assert (not (str.in_re X (re.++ (str.to_re "/filename=") (re.* (re.comp (str.to_re "\u{a}"))) (str.to_re ".mpeg/i\u{a}")))))
(assert (str.in_re X (re.++ ((_ re.loop 1 2) (re.union (re.range "A" "Z") (re.range "a" "z"))) ((_ re.loop 1 2) (re.range "0" "9")) (re.opt (re.union (re.range "A" "Z") (re.range "a" "z"))) (re.opt (re.union (str.to_re " ") (str.to_re "\u{9}") (str.to_re "\u{a}") (str.to_re "\u{c}") (str.to_re "\u{d}"))) (re.range "0" "9") ((_ re.loop 2 2) (re.union (re.range "A" "Z") (re.range "a" "z"))) (str.to_re "\u{a}"))))
(assert (str.in_re X (re.++ (str.to_re "//x/") ((_ re.loop 8 10) (re.union (re.range "0" "9") (re.range "a" "z"))) (str.to_re "/") ((_ re.loop 32 32) (re.union (re.range "0" "9") (re.range "a" "f"))) (str.to_re "/AA/0/U\u{a}"))))
(assert (not (str.in_re X (re.++ (str.to_re "/User-Agent:") (re.union (str.to_re " ") (str.to_re "\u{9}") (str.to_re "\u{a}") (str.to_re "\u{c}") (str.to_re "\u{d}")) (str.to_re "MSIE") (re.* re.allchar) (str.to_re ";") (re.union (str.to_re " ") (str.to_re "\u{9}") (str.to_re "\u{a}") (str.to_re "\u{c}") (str.to_re "\u{d}")) (str.to_re "NT") (re.* re.allchar) (str.to_re ";") (re.union (str.to_re " ") (str.to_re "\u{9}") (str.to_re "\u{a}") (str.to_re "\u{c}") (str.to_re "\u{d}")) (str.to_re "AV") (re.* re.allchar) (str.to_re ";") (re.union (str.to_re " ") (str.to_re "\u{9}") (str.to_re "\u{a}") (str.to_re "\u{c}") (str.to_re "\u{d}")) (str.to_re "OV") (re.* re.allchar) (str.to_re ";") (re.union (str.to_re " ") (str.to_re "\u{9}") (str.to_re "\u{a}") (str.to_re "\u{c}") (str.to_re "\u{d}")) (str.to_re "NA") (re.* re.allchar) (str.to_re "VR(PH5") re.allchar (str.to_re "0") (re.union (str.to_re " ") (str.to_re "\u{9}") (str.to_re "\u{a}") (str.to_re "\u{c}") (str.to_re "\u{d}")) (str.to_re "W20130912/H\u{a}")))))
(check-sat)

(exit)
